all_keccak_equations/0xE44A69128FEDE840_0x494FB15325D958CB_0x2614878461963083_0x5A31C32363293F25_40/maximal_linearize.log

# variables: 2240
# non-linear: 256

        0.00 - Start computation

        0.00 - target guess 160
Set parameter Username
Academic license - for non-commercial use only - expires 2022-06-20
Set parameter Threads to value 64
Set parameter MIPFocus to value 3
        0.04 - there are 119 short nonlinear (11) polynomial
Set parameter TimeLimit to value 1800
Gurobi Optimizer version 9.5.0 build v9.5.0rc5 (linux64)
Thread count: 32 physical cores, 64 logical processors, using up to 64 threads
Optimize a model with 5287 rows, 2496 columns and 16563 nonzeros
Model fingerprint: 0x19c99b7c
Variable types: 0 continuous, 2496 integer (2496 binary)
Coefficient statistics:
  Matrix range     [1e+00, 1e+00]
  Objective range  [1e+00, 1e+00]
  Bounds range     [1e+00, 1e+00]
  RHS range        [3e+01, 2e+02]
Presolve removed 3976 rows and 1290 columns
Presolve time: 0.01s
Presolved: 1311 rows, 1206 columns, 5052 nonzeros
Variable types: 0 continuous, 1206 integer (1134 binary)
Root relaxation presolved: 1311 rows, 1206 columns, 5052 nonzeros


Root relaxation: objective 3.400000e+01, 1596 iterations, 0.06 seconds (0.06 work units)

    Nodes    |    Current Node    |     Objective Bounds      |     Work
 Expl Unexpl |  Obj  Depth IntInf | Incumbent    BestBd   Gap | It/Node Time

     0     0   34.00000    0   62          -   34.00000      -     -    0s
H    0     0                      34.0000000   34.00000  0.00%     -    0s

Cutting planes:
  Gomory: 3
  Cover: 1
  Zero half: 52
  RLT: 2

Explored 1 nodes (3946 simplex iterations) in 0.53 seconds (0.33 work units)
Thread count was 64 (of 64 available processors)

Solution count 1: 34 

Optimal solution found (tolerance 1.00e-04)
Best objective 3.400000000000e+01, best bound 3.400000000000e+01, gap 0.0000%
        0.57 - 	Solution num 1:
guessed:  x651 x656 x665 x671 x676 x719 x728 x779 x781 x786 x795 x874 x882 x893 x906 x944 x949 x950 x958 x978 x1002 x1058 x1066 x1075 x1077 x1096 x1103 x1120 x1136 x1175 x1183 x1192 x1213 x1215 x1218 x1229 x1234 x1250 x1276 x1285 x1291 x1298 x1304 x1310 x1344 x1355 x1360 x1367 x1374 x1406 x1445 x1461 x1474 x1475 x1480 x1487 x1496 x1508 x1514 x1516 x1517 x1519 x1526 x1537 x1566 x1569 x1571 x1576 x1582 x1594 x1602 x1612 x1635 x1636 x1637 x1640 x1649 x1655 x1660 x1661 x1672 x1673 x1693 x1696 x1700 x1709 x1715 x1720 x1728 x1760 x1766 x1782 x1784 x1790 x1797 x1805 x1808 x1824 x1842 x1845 x1848 x1850 x1852 x1858 x1860 x1861 x1869 x1871 x1880 x1922 x1934 x1941 x1973 x1989 x1992 x1994 x2002 x2005 x2010 x2012 x2013 x2014 x2016 x2018 x2019 x2021 x2031 x2042 x2050 x2058 x2065 x2067 x2070 x2071 x2074 x2077 x2083 x2085 x2090 x2109 x2129 x2130 x2140 x2143 x2146 x2152 x2154 x2159 x2175 x2182 x2185 x2194 x2201 x2202 x2205 x2208 x2219 x2220 x2221 x2235[160]
linearized equations:  6 11 14 16 22 33 38 54 65 71 77 82 84 98 116 122 128 133 139 140 144 147 181 188 202 220 223 230 236 239 245 247 250 252
        0.57 - target guess 159
Set parameter Username
Academic license - for non-commercial use only - expires 2022-06-20
Set parameter Threads to value 64
Set parameter MIPFocus to value 3
        0.61 - there are 119 short nonlinear (11) polynomial
Set parameter TimeLimit to value 1800
Gurobi Optimizer version 9.5.0 build v9.5.0rc5 (linux64)
Thread count: 32 physical cores, 64 logical processors, using up to 64 threads
Optimize a model with 5287 rows, 2496 columns and 16563 nonzeros
Model fingerprint: 0x26e41514
Variable types: 0 continuous, 2496 integer (2496 binary)
Coefficient statistics:
  Matrix range     [1e+00, 1e+00]
  Objective range  [1e+00, 1e+00]
  Bounds range     [1e+00, 1e+00]
  RHS range        [4e+01, 2e+02]
Presolve removed 3976 rows and 1290 columns
Presolve time: 0.01s
Presolved: 1311 rows, 1206 columns, 5052 nonzeros
Variable types: 0 continuous, 1206 integer (1134 binary)
Root relaxation presolved: 1311 rows, 1206 columns, 5052 nonzeros


Root relaxation: objective 3.500000e+01, 1577 iterations, 0.05 seconds (0.05 work units)

    Nodes    |    Current Node    |     Objective Bounds      |     Work
 Expl Unexpl |  Obj  Depth IntInf | Incumbent    BestBd   Gap | It/Node Time

*    0     0               0      35.0000000   35.00000  0.00%     -    0s

Explored 1 nodes (3244 simplex iterations) in 0.35 seconds (0.26 work units)
Thread count was 64 (of 64 available processors)

Solution count 1: 35 

Optimal solution found (tolerance 1.00e-04)
Best objective 3.500000000000e+01, best bound 3.500000000000e+01, gap 0.0000%
        0.96 - 	Solution num 1:
guessed:  x651 x665 x671 x676 x697 x700 x728 x779 x781 x795 x827 x882 x893 x926 x928 x929 x944 x958 x994 x1002 x1042 x1058 x1066 x1077 x1085 x1093 x1096 x1120 x1125 x1144 x1175 x1183 x1192 x1218 x1234 x1255 x1266 x1285 x1291 x1298 x1304 x1310 x1344 x1355 x1360 x1366 x1367 x1371 x1374 x1393 x1395 x1406 x1461 x1474 x1475 x1476 x1477 x1479 x1480 x1487 x1501 x1504 x1506 x1508 x1514 x1516 x1517 x1519 x1532 x1537 x1560 x1569 x1571 x1574 x1582 x1598 x1602 x1617 x1620 x1626 x1628 x1635 x1637 x1649 x1655 x1656 x1659 x1661 x1680 x1693 x1696 x1709 x1715 x1720 x1760 x1782 x1790 x1797 x1808 x1829 x1832 x1834 x1842 x1845 x1848 x1858 x1860 x1861 x1869 x1871 x1879 x1922 x1934 x1941 x1942 x1963 x1973 x1989 x1992 x1995 x1999 x2002 x2005 x2010 x2012 x2013 x2014 x2016 x2018 x2019 x2021 x2031 x2040 x2042 x2043 x2058 x2071 x2074 x2090 x2091 x2109 x2117 x2127 x2129 x2130 x2140 x2143 x2146 x2152 x2157 x2159 x2182 x2185 x2194 x2201 x2205 x2207 x2226 x2235[159]
linearized equations:  6 11 14 22 33 38 59 62 65 71 77 82 84 103 106 116 122 128 133 139 140 144 147 165 168 181 207 210 220 223 236 239 245 250 252
        0.96 - target guess 158
Set parameter Username
Academic license - for non-commercial use only - expires 2022-06-20
Set parameter Threads to value 64
Set parameter MIPFocus to value 3
        1.00 - there are 119 short nonlinear (11) polynomial
Set parameter TimeLimit to value 1800
Gurobi Optimizer version 9.5.0 build v9.5.0rc5 (linux64)
Thread count: 32 physical cores, 64 logical processors, using up to 64 threads
Optimize a model with 5287 rows, 2496 columns and 16563 nonzeros
Model fingerprint: 0x53a1e181
Variable types: 0 continuous, 2496 integer (2496 binary)
Coefficient statistics:
  Matrix range     [1e+00, 1e+00]
  Objective range  [1e+00, 1e+00]
  Bounds range     [1e+00, 1e+00]
  RHS range        [4e+01, 2e+02]
Presolve removed 3976 rows and 1290 columns
Presolve time: 0.01s
Presolved: 1311 rows, 1206 columns, 5052 nonzeros
Variable types: 0 continuous, 1206 integer (1134 binary)
Root relaxation presolved: 1311 rows, 1206 columns, 5052 nonzeros


Root relaxation: objective 3.600000e+01, 1675 iterations, 0.07 seconds (0.06 work units)

    Nodes    |    Current Node    |     Objective Bounds      |     Work
 Expl Unexpl |  Obj  Depth IntInf | Incumbent    BestBd   Gap | It/Node Time

*    0     0               0      36.0000000   36.00000  0.00%     -    0s

Explored 1 nodes (2734 simplex iterations) in 0.44 seconds (0.23 work units)
Thread count was 64 (of 64 available processors)

Solution count 1: 36 

Optimal solution found (tolerance 1.00e-04)
Best objective 3.600000000000e+01, best bound 3.600000000000e+01, gap 0.0000%
        1.44 - 	Solution num 1:
guessed:  x649 x665 x671 x673 x674 x676 x697 x728 x768 x779 x781 x792 x795 x801 x827 x863 x890 x893 x902 x908 x926 x944 x958 x983 x1002 x1042 x1058 x1066 x1085 x1093 x1096 x1120 x1122 x1158 x1163 x1175 x1195 x1200 x1234 x1257 x1274 x1291 x1298 x1304 x1310 x1344 x1355 x1360 x1374 x1395 x1463 x1474 x1475 x1476 x1477 x1480 x1501 x1506 x1508 x1514 x1517 x1519 x1532 x1537 x1555 x1582 x1602 x1620 x1626 x1633 x1635 x1636 x1637 x1649 x1655 x1656 x1657 x1658 x1660 x1661 x1680 x1693 x1696 x1709 x1715 x1717 x1718 x1720 x1747 x1748 x1752 x1782 x1790 x1797 x1803 x1806 x1808 x1829 x1845 x1848 x1858 x1860 x1861 x1869 x1871 x1880 x1883 x1908 x1909 x1922 x1992 x1999 x2002 x2005 x2014 x2015 x2016 x2017 x2018 x2019 x2021 x2022 x2031 x2040 x2042 x2043 x2065 x2066 x2070 x2071 x2074 x2090 x2091 x2109 x2111 x2116 x2129 x2130 x2140 x2143 x2146 x2157 x2160 x2181 x2182 x2183 x2184 x2185 x2194 x2196 x2201 x2202 x2205 x2207 x2208 x2222 x2226 x2235[158]
linearized equations:  11 14 22 33 36 38 59 62 65 71 77 82 84 103 105 122 128 133 139 140 141 144 147 165 168 181 207 223 236 239 245 247 248 250 252 253
        1.45 - target guess 157
Set parameter Username
Academic license - for non-commercial use only - expires 2022-06-20
Set parameter Threads to value 64
Set parameter MIPFocus to value 3
        1.47 - there are 119 short nonlinear (11) polynomial
Set parameter TimeLimit to value 1800
Gurobi Optimizer version 9.5.0 build v9.5.0rc5 (linux64)
Thread count: 32 physical cores, 64 logical processors, using up to 64 threads
Optimize a model with 5287 rows, 2496 columns and 16563 nonzeros
Model fingerprint: 0xa92cdde1
Variable types: 0 continuous, 2496 integer (2496 binary)
Coefficient statistics:
  Matrix range     [1e+00, 1e+00]
  Objective range  [1e+00, 1e+00]
  Bounds range     [1e+00, 1e+00]
  RHS range        [4e+01, 2e+02]
Presolve removed 3976 rows and 1290 columns
Presolve time: 0.01s
Presolved: 1311 rows, 1206 columns, 5052 nonzeros
Variable types: 0 continuous, 1206 integer (1134 binary)
Root relaxation presolved: 1311 rows, 1206 columns, 5052 nonzeros


Root relaxation: objective 3.700000e+01, 1722 iterations, 0.07 seconds (0.07 work units)

    Nodes    |    Current Node    |     Objective Bounds      |     Work
 Expl Unexpl |  Obj  Depth IntInf | Incumbent    BestBd   Gap | It/Node Time

     0     0   37.00000    0   19          -   37.00000      -     -    0s
H    0     0                      37.0000000   37.00000  0.00%     -    0s
     0     0   37.00000    0   19   37.00000   37.00000  0.00%     -    0s

Explored 1 nodes (4303 simplex iterations) in 0.58 seconds (0.31 work units)
Thread count was 64 (of 64 available processors)

Solution count 1: 37 

Optimal solution found (tolerance 1.00e-04)
Best objective 3.700000000000e+01, best bound 3.700000000000e+01, gap 0.0000%
        2.06 - 	Solution num 1:
guessed:  x649 x665 x671 x673 x689 x728 x753 x779 x792 x795 x801 x803 x821 x822 x854 x893 x902 x906 x944 x958 x978 x1002 x1009 x1031 x1058 x1066 x1096 x1120 x1122 x1134 x1136 x1172 x1175 x1210 x1215 x1218 x1234 x1250 x1274 x1298 x1304 x1309 x1310 x1311 x1326 x1344 x1366 x1367 x1374 x1383 x1461 x1474 x1475 x1477 x1480 x1493 x1496 x1508 x1517 x1519 x1531 x1532 x1537 x1546 x1571 x1582 x1594 x1595 x1598 x1602 x1607 x1609 x1612 x1636 x1637 x1649 x1650 x1651 x1655 x1667 x1669 x1696 x1697 x1706 x1709 x1720 x1721 x1739 x1747 x1766 x1782 x1790 x1797 x1805 x1808 x1819 x1821 x1824 x1845 x1848 x1858 x1860 x1861 x1869 x1879 x1880 x1896 x1922 x1925 x1941 x1954 x1990 x1992 x1994 x2002 x2005 x2014 x2015 x2016 x2018 x2019 x2021 x2031 x2032 x2034 x2040 x2042 x2054 x2061 x2070 x2071 x2081 x2083 x2085 x2090 x2103 x2104 x2109 x2129 x2130 x2140 x2143 x2146 x2152 x2159 x2182 x2183 x2185 x2194 x2198 x2201 x2202 x2205 x2208 x2214 x2218 x2221[157]
linearized equations:  11 14 22 33 38 49 50 51 54 65 71 77 82 84 93 98 122 128 133 139 140 141 144 147 157 160 181 199 201 202 223 236 239 245 247 250 252
        2.06 - target guess 156
Set parameter Username
Academic license - for non-commercial use only - expires 2022-06-20
Set parameter Threads to value 64
Set parameter MIPFocus to value 3
        2.09 - there are 119 short nonlinear (11) polynomial
Set parameter TimeLimit to value 1800
Gurobi Optimizer version 9.5.0 build v9.5.0rc5 (linux64)
Thread count: 32 physical cores, 64 logical processors, using up to 64 threads
Optimize a model with 5287 rows, 2496 columns and 16563 nonzeros
Model fingerprint: 0xf55c195f
Variable types: 0 continuous, 2496 integer (2496 binary)
Coefficient statistics:
  Matrix range     [1e+00, 1e+00]
  Objective range  [1e+00, 1e+00]
  Bounds range     [1e+00, 1e+00]
  RHS range        [4e+01, 2e+02]
Presolve removed 3976 rows and 1290 columns
Presolve time: 0.01s
Presolved: 1311 rows, 1206 columns, 5052 nonzeros
Variable types: 0 continuous, 1206 integer (1134 binary)
Root relaxation presolved: 1311 rows, 1206 columns, 5052 nonzeros


Root relaxation: objective 3.800000e+01, 1785 iterations, 0.08 seconds (0.07 work units)

    Nodes    |    Current Node    |     Objective Bounds      |     Work
 Expl Unexpl |  Obj  Depth IntInf | Incumbent    BestBd   Gap | It/Node Time

     0     0   38.00000    0   35          -   38.00000      -     -    0s
H    0     0                      38.0000000   38.00000  0.00%     -    0s

Cutting planes:
  Gomory: 1
  Cover: 1
  Zero half: 32

Explored 1 nodes (3810 simplex iterations) in 0.66 seconds (0.33 work units)
Thread count was 64 (of 64 available processors)

Solution count 1: 38 

Optimal solution found (tolerance 1.00e-04)
Best objective 3.800000000000e+01, best bound 3.800000000000e+01, gap 0.0000%
        2.75 - 	Solution num 1:
guessed:  x649 x662 x665 x676 x684 x697 x700 x728 x747 x757 x779 x792 x795 x801 x814 x822 x827 x893 x926 x929 x944 x958 x978 x983 x1042 x1075 x1077 x1122 x1144 x1172 x1215 x1218 x1234 x1250 x1255 x1298 x1304 x1310 x1355 x1360 x1371 x1374 x1395 x1461 x1474 x1475 x1476 x1477 x1479 x1480 x1485 x1488 x1496 x1501 x1504 x1506 x1508 x1514 x1517 x1519 x1532 x1537 x1571 x1582 x1598 x1602 x1604 x1612 x1614 x1617 x1620 x1626 x1635 x1637 x1649 x1655 x1656 x1659 x1661 x1664 x1672 x1673 x1680 x1693 x1709 x1715 x1720 x1766 x1787 x1797 x1804 x1805 x1808 x1816 x1824 x1826 x1829 x1845 x1858 x1860 x1869 x1922 x1925 x1934 x1941 x1963 x1992 x1994 x1999 x2002 x2005 x2014 x2015 x2016 x2018 x2019 x2021 x2031 x2040 x2042 x2043 x2065 x2066 x2071 x2074 x2078 x2085 x2090 x2091 x2106 x2109 x2117 x2129 x2140 x2143 x2146 x2154 x2157 x2159 x2175 x2181 x2182 x2185 x2193 x2194 x2201 x2202 x2205 x2207 x2208 x2213 x2214 x2221 x2223 x2226 x2235[156]
linearized equations:  11 22 33 38 54 59 62 65 71 77 82 84 98 103 106 128 133 139 140 144 147 152 160 165 168 181 194 202 204 207 210 223 236 239 245 247 250 252
        2.76 - target guess 155
Set parameter Username
Academic license - for non-commercial use only - expires 2022-06-20
Set parameter Threads to value 64
Set parameter MIPFocus to value 3
        2.78 - there are 119 short nonlinear (11) polynomial
Set parameter TimeLimit to value 1800
Gurobi Optimizer version 9.5.0 build v9.5.0rc5 (linux64)
Thread count: 32 physical cores, 64 logical processors, using up to 64 threads
Optimize a model with 5287 rows, 2496 columns and 16563 nonzeros
Model fingerprint: 0x5cdf14c2
Variable types: 0 continuous, 2496 integer (2496 binary)
Coefficient statistics:
  Matrix range     [1e+00, 1e+00]
  Objective range  [1e+00, 1e+00]
  Bounds range     [1e+00, 1e+00]
  RHS range        [4e+01, 2e+02]
Presolve removed 3976 rows and 1290 columns
Presolve time: 0.01s
Presolved: 1311 rows, 1206 columns, 5052 nonzeros
Variable types: 0 continuous, 1206 integer (1134 binary)
Root relaxation presolved: 1311 rows, 1206 columns, 5052 nonzeros


Root relaxation: objective 3.900000e+01, 1847 iterations, 0.08 seconds (0.08 work units)

    Nodes    |    Current Node    |     Objective Bounds      |     Work
 Expl Unexpl |  Obj  Depth IntInf | Incumbent    BestBd   Gap | It/Node Time

     0     0   39.00000    0   22          -   39.00000      -     -    0s
H    0     0                      39.0000000   39.00000  0.00%     -    0s

Cutting planes:
  Gomory: 2
  Cover: 2
  MIR: 4
  StrongCG: 1
  Flow cover: 10
  Zero half: 7
  RLT: 2

Explored 1 nodes (4263 simplex iterations) in 0.73 seconds (0.39 work units)
Thread count was 64 (of 64 available processors)

Solution count 1: 39 

Optimal solution found (tolerance 1.00e-04)
Best objective 3.900000000000e+01, best bound 3.900000000000e+01, gap 0.0000%
        3.52 - 	Solution num 1:
guessed:  x649 x671 x672 x673 x689 x690 x697 x753 x757 x779 x781 x801 x815 x819 x820 x821 x822 x827 x849 x851 x854 x858 x863 x915 x926 x978 x983 x1025 x1027 x1031 x1075 x1129 x1175 x1193 x1208 x1215 x1234 x1309 x1310 x1326 x1366 x1374 x1383 x1461 x1475 x1476 x1477 x1479 x1480 x1485 x1487 x1493 x1496 x1501 x1506 x1514 x1517 x1519 x1537 x1546 x1571 x1602 x1605 x1607 x1609 x1610 x1612 x1617 x1635 x1637 x1639 x1651 x1654 x1655 x1656 x1660 x1661 x1665 x1667 x1669 x1670 x1671 x1672 x1693 x1714 x1720 x1731 x1759 x1764 x1766 x1782 x1787 x1802 x1808 x1819 x1821 x1822 x1824 x1829 x1845 x1858 x1860 x1879 x1880 x1896 x1899 x1941 x1954 x1990 x1992 x1994 x1999 x2014 x2015 x2016 x2018 x2019 x2021 x2028 x2032 x2034 x2040 x2042 x2054 x2064 x2066 x2070 x2081 x2083 x2085 x2090 x2091 x2109 x2129 x2152 x2153 x2154 x2157 x2159 x2168 x2185 x2194 x2196 x2197 x2198 x2201 x2202 x2205 x2207 x2208 x2214 x2218 x2221 x2223 x2226[155]
linearized equations:  11 32 33 38 47 49 50 51 54 59 76 77 82 84 93 98 103 139 140 144 147 153 157 158 160 165 181 195 197 199 200 201 202 207 223 245 247 250 252
        3.53 - target guess 154
Set parameter Username
Academic license - for non-commercial use only - expires 2022-06-20
Set parameter Threads to value 64
Set parameter MIPFocus to value 3
        3.55 - there are 119 short nonlinear (11) polynomial
Set parameter TimeLimit to value 1800
Gurobi Optimizer version 9.5.0 build v9.5.0rc5 (linux64)
Thread count: 32 physical cores, 64 logical processors, using up to 64 threads
Optimize a model with 5287 rows, 2496 columns and 16563 nonzeros
Model fingerprint: 0xab6a509f
Variable types: 0 continuous, 2496 integer (2496 binary)
Coefficient statistics:
  Matrix range     [1e+00, 1e+00]
  Objective range  [1e+00, 1e+00]
  Bounds range     [1e+00, 1e+00]
  RHS range        [4e+01, 2e+02]
Presolve removed 3976 rows and 1290 columns
Presolve time: 0.01s
Presolved: 1311 rows, 1206 columns, 5052 nonzeros
Variable types: 0 continuous, 1206 integer (1134 binary)
Root relaxation presolved: 1311 rows, 1206 columns, 5052 nonzeros


Root relaxation: objective 4.000000e+01, 1833 iterations, 0.09 seconds (0.08 work units)

    Nodes    |    Current Node    |     Objective Bounds      |     Work
 Expl Unexpl |  Obj  Depth IntInf | Incumbent    BestBd   Gap | It/Node Time

     0     0   40.00000    0  100          -   40.00000      -     -    0s
     0     0   40.00000    0  116          -   40.00000      -     -    0s
     0     0 -1.000e+100    0  311          - infeasible      -     -    1s

Cutting planes:
  Gomory: 11
  Flow cover: 2
  Zero half: 10
  RLT: 1

Explored 1 nodes (7484 simplex iterations) in 1.38 seconds (0.82 work units)
Thread count was 64 (of 64 available processors)

Solution count 0
No other solutions better than -1e+100

Model is infeasible
Best objective -, best bound -, gap -
        4.94 - 	Solution num 0:
        4.95 - increase high_eq_constraint to 1

Set parameter Username
Academic license - for non-commercial use only - expires 2022-06-20
Set parameter Threads to value 64
Set parameter MIPFocus to value 3
        4.99 - there are 119 short nonlinear (11) polynomial
Set parameter TimeLimit to value 1800
Gurobi Optimizer version 9.5.0 build v9.5.0rc5 (linux64)
Thread count: 32 physical cores, 64 logical processors, using up to 64 threads
Optimize a model with 5287 rows, 2496 columns and 16563 nonzeros
Model fingerprint: 0x7e7f7a79
Variable types: 0 continuous, 2496 integer (2496 binary)
Coefficient statistics:
  Matrix range     [1e+00, 1e+00]
  Objective range  [1e+00, 1e+00]
  Bounds range     [1e+00, 1e+00]
  RHS range        [1e+00, 2e+02]
Presolve removed 961 rows and 961 columns
Presolve time: 0.02s
Presolved: 4326 rows, 1535 columns, 14504 nonzeros
Variable types: 0 continuous, 1535 integer (1535 binary)
Root relaxation presolved: 4326 rows, 1535 columns, 14504 nonzeros


Root relaxation: objective 4.000000e+01, 2469 iterations, 0.24 seconds (0.28 work units)

    Nodes    |    Current Node    |     Objective Bounds      |     Work
 Expl Unexpl |  Obj  Depth IntInf | Incumbent    BestBd   Gap | It/Node Time

     0     0   40.00000    0  620          -   40.00000      -     -    1s
     0     0   40.00000    0  550          -   40.00000      -     -    2s
     0     0   40.00000    0  593          -   40.00000      -     -    2s
     0     0   40.00000    0  355          -   40.00000      -     -    5s
     0     0   40.00000    0  343          -   40.00000      -     -    7s
     0     0   40.00000    0  343          -   40.00000      -     -    8s
     0     2   40.00000    0  343          -   40.00000      -     -   11s
    13    12   40.00000    4  247          -   40.00000      -   965   16s
    31    26   40.00000    6  224          -   40.00000      -  1011   20s
    51    32   40.00000    7  255          -   40.00000      -   920   27s
H   54    32                      40.0000000   40.00000  0.00%   890   27s

Cutting planes:
  Gomory: 6
  Flow cover: 18
  Zero half: 496
  RLT: 1054

Explored 77 nodes (94431 simplex iterations) in 27.91 seconds (21.98 work units)
Thread count was 64 (of 64 available processors)

Solution count 1: 40 

Optimal solution found (tolerance 1.00e-04)
Best objective 4.000000000000e+01, best bound 4.000000000000e+01, gap 0.0000%
       33.15 - 	Solution num 1:
guessed:  x670 x671 x673 x689 x697 x699 x700 x702 x753 x801 x806 x819 x820 x821 x827 x854 x902 x926 x929 x963 x978 x983 x1031 x1120 x1134 x1136 x1144 x1163 x1175 x1193 x1200 x1213 x1215 x1234 x1248 x1250 x1255 x1309 x1310 x1326 x1367 x1371 x1374 x1383 x1386 x1415 x1461 x1475 x1476 x1477 x1479 x1480 x1487 x1493 x1496 x1501 x1504 x1506 x1514 x1519 x1537 x1546 x1547 x1555 x1592 x1602 x1607 x1610 x1612 x1620 x1626 x1637 x1655 x1656 x1657 x1659 x1660 x1667 x1669 x1670 x1671 x1672 x1673 x1680 x1714 x1717 x1720 x1721 x1747 x1764 x1766 x1782 x1802 x1805 x1808 x1819 x1822 x1824 x1829 x1832 x1860 x1879 x1880 x1896 x1899 x1909 x1942 x1954 x1990 x1992 x1994 x2012 x2013 x2014 x2015 x2016 x2019 x2021 x2022 x2032 x2034 x2036 x2040 x2042 x2043 x2054 x2064 x2065 x2081 x2083 x2090 x2091 x2094 x2109 x2117 x2150 x2154 x2157 x2159 x2160 x2172 x2181 x2185 x2194 x2198 x2201 x2202 x2205 x2207 x2212 x2214 x2218 x2221 x2226[154]
linearized equations:  32 33 38 49 50 51 54 59 62 76 77 82 84 93 96 98 103 106 138 139 140 141 144 147 157 158 160 165 168 199 200 201 202 207 210 245 247 250 252 253
       33.16 - target guess 153
Set parameter Username
Academic license - for non-commercial use only - expires 2022-06-20
Set parameter Threads to value 64
Set parameter MIPFocus to value 3
       33.20 - there are 119 short nonlinear (11) polynomial
Set parameter TimeLimit to value 1800
Gurobi Optimizer version 9.5.0 build v9.5.0rc5 (linux64)
Thread count: 32 physical cores, 64 logical processors, using up to 64 threads
Optimize a model with 5287 rows, 2496 columns and 16563 nonzeros
Model fingerprint: 0x9319e87f
Variable types: 0 continuous, 2496 integer (2496 binary)
Coefficient statistics:
  Matrix range     [1e+00, 1e+00]
  Objective range  [1e+00, 1e+00]
  Bounds range     [1e+00, 1e+00]
  RHS range        [4e+01, 2e+02]
Presolve removed 3976 rows and 1290 columns
Presolve time: 0.01s
Presolved: 1311 rows, 1206 columns, 5052 nonzeros
Variable types: 0 continuous, 1206 integer (1134 binary)
Root relaxation presolved: 1311 rows, 1206 columns, 5052 nonzeros


Root relaxation: infeasible, 2276 iterations, 0.12 seconds (0.12 work units)

    Nodes    |    Current Node    |     Objective Bounds      |     Work
 Expl Unexpl |  Obj  Depth IntInf | Incumbent    BestBd   Gap | It/Node Time

     0     0 infeasible    0               - infeasible      -     -    0s

Explored 1 nodes (2276 simplex iterations) in 0.15 seconds (0.14 work units)
Thread count was 64 (of 64 available processors)

Solution count 0
No other solutions better than -1e+100

Model is infeasible
Best objective -, best bound -, gap -
       33.35 - 	Solution num 0:
       33.35 - increase high_eq_constraint to 1

Set parameter Username
Academic license - for non-commercial use only - expires 2022-06-20
Set parameter Threads to value 64
Set parameter MIPFocus to value 3
       33.37 - there are 119 short nonlinear (11) polynomial
Set parameter TimeLimit to value 1800
Gurobi Optimizer version 9.5.0 build v9.5.0rc5 (linux64)
Thread count: 32 physical cores, 64 logical processors, using up to 64 threads
Optimize a model with 5287 rows, 2496 columns and 16563 nonzeros
Model fingerprint: 0x711118aa
Variable types: 0 continuous, 2496 integer (2496 binary)
Coefficient statistics:
  Matrix range     [1e+00, 1e+00]
  Objective range  [1e+00, 1e+00]
  Bounds range     [1e+00, 1e+00]
  RHS range        [1e+00, 2e+02]
Presolve removed 961 rows and 961 columns
Presolve time: 0.02s
Presolved: 4326 rows, 1535 columns, 14504 nonzeros
Variable types: 0 continuous, 1535 integer (1535 binary)
Root relaxation presolved: 4326 rows, 1535 columns, 14504 nonzeros


Root relaxation: objective 4.100000e+01, 2430 iterations, 0.26 seconds (0.31 work units)

    Nodes    |    Current Node    |     Objective Bounds      |     Work
 Expl Unexpl |  Obj  Depth IntInf | Incumbent    BestBd   Gap | It/Node Time

     0     0   41.00000    0  599          -   41.00000      -     -    1s
     0     0   41.00000    0  509          -   41.00000      -     -    1s
     0     0   41.00000    0  552          -   41.00000      -     -    2s

Cutting planes:
  Gomory: 6
  Lift-and-project: 18
  Flow cover: 3
  Zero half: 190
  RLT: 12

Explored 1 nodes (9351 simplex iterations) in 2.70 seconds (2.35 work units)
Thread count was 64 (of 64 available processors)

Solution count 0
No other solutions better than -1e+100

Model is infeasible
Best objective -, best bound -, gap -
       36.07 - 	Solution num 0:
       36.07 - increase high_eq_constraint to 2

Set parameter Username
Academic license - for non-commercial use only - expires 2022-06-20
Set parameter Threads to value 64
Set parameter MIPFocus to value 3
       36.12 - there are 119 short nonlinear (11) polynomial
Set parameter TimeLimit to value 1800
Gurobi Optimizer version 9.5.0 build v9.5.0rc5 (linux64)
Thread count: 32 physical cores, 64 logical processors, using up to 64 threads
Optimize a model with 5287 rows, 2496 columns and 16563 nonzeros
Model fingerprint: 0x5027b99f
Variable types: 0 continuous, 2496 integer (2496 binary)
Coefficient statistics:
  Matrix range     [1e+00, 1e+00]
  Objective range  [1e+00, 1e+00]
  Bounds range     [1e+00, 1e+00]
  RHS range        [2e+00, 2e+02]
Presolve removed 961 rows and 961 columns
Presolve time: 0.01s
Presolved: 4326 rows, 1535 columns, 14504 nonzeros
Variable types: 0 continuous, 1535 integer (1535 binary)
Root relaxation presolved: 4326 rows, 1535 columns, 14504 nonzeros


Root relaxation: objective 4.100000e+01, 2493 iterations, 0.25 seconds (0.33 work units)

    Nodes    |    Current Node    |     Objective Bounds      |     Work
 Expl Unexpl |  Obj  Depth IntInf | Incumbent    BestBd   Gap | It/Node Time

     0     0   41.00000    0  626          -   41.00000      -     -    1s
     0     0   41.00000    0  621          -   41.00000      -     -    2s
     0     0   41.00000    0  705          -   41.00000      -     -    2s
     0     0   41.00000    0  694          -   41.00000      -     -    4s
     0     0   41.00000    0  694          -   41.00000      -     -    6s
     0     2   41.00000    0  694          -   41.00000      -     -    9s
     3     8   41.00000    2  921          -   41.00000      -  2094   10s
    15    18   41.00000    4  884          -   41.00000      -  1222   15s
    47    10   41.00000    6  924          -   41.00000      -  1268   20s

Cutting planes:
  Gomory: 1
  Lift-and-project: 2
  Flow cover: 22
  Zero half: 708
  RLT: 236

Explored 79 nodes (109914 simplex iterations) in 21.89 seconds (19.87 work units)
Thread count was 64 (of 64 available processors)

Solution count 0
No other solutions better than -1e+100

Model is infeasible
Best objective -, best bound -, gap -
       58.03 - 	Solution num 0:
       58.04 - increase high_eq_constraint to 3

Set parameter Username
Academic license - for non-commercial use only - expires 2022-06-20
Set parameter Threads to value 64
Set parameter MIPFocus to value 3
       58.09 - there are 119 short nonlinear (11) polynomial
Set parameter TimeLimit to value 1800
Gurobi Optimizer version 9.5.0 build v9.5.0rc5 (linux64)
Thread count: 32 physical cores, 64 logical processors, using up to 64 threads
Optimize a model with 5287 rows, 2496 columns and 16563 nonzeros
Model fingerprint: 0xbb3e15d6
Variable types: 0 continuous, 2496 integer (2496 binary)
Coefficient statistics:
  Matrix range     [1e+00, 1e+00]
  Objective range  [1e+00, 1e+00]
  Bounds range     [1e+00, 1e+00]
  RHS range        [3e+00, 2e+02]
Presolve removed 961 rows and 961 columns
Presolve time: 0.01s
Presolved: 4326 rows, 1535 columns, 14504 nonzeros
Variable types: 0 continuous, 1535 integer (1535 binary)
Root relaxation presolved: 4326 rows, 1535 columns, 14504 nonzeros


Root relaxation: objective 4.100000e+01, 2687 iterations, 0.35 seconds (0.38 work units)

    Nodes    |    Current Node    |     Objective Bounds      |     Work
 Expl Unexpl |  Obj  Depth IntInf | Incumbent    BestBd   Gap | It/Node Time

     0     0   41.00000    0  735          -   41.00000      -     -    2s
     0     0   41.00000    0  774          -   41.00000      -     -    3s
     0     0   41.00000    0  790          -   41.00000      -     -    4s
     0     0   41.00000    0  755          -   41.00000      -     -    6s
     0     0   41.00000    0  755          -   41.00000      -     -    8s
     0     2   41.00000    0  755          -   41.00000      -     -   10s
    15    30   41.00000    4 1032          -   41.00000      -  1485   15s
    61    84   41.00000    6 1041          -   41.00000      -  1492   23s
   111   110   41.00000    7  824          -   41.00000      -  1453   27s
   239   140 infeasible    9               -   41.00000      -  1600   31s
   303   150 infeasible   10               -   41.00000      -  1384   35s
   514   184 infeasible   14               -   41.00000      -  1139   42s
   664   168 infeasible   15               -   41.00000      -  1078   45s
   804   182   41.00000    9 1025          -   41.00000      -  1054   50s
   982   165 infeasible   20               -   41.00000      -   980   56s
  1070   163   41.00000   20 1033          -   41.00000      -   951   60s
  1277   158   41.00000   22  932          -   41.00000      -   931   68s
  1375   137 infeasible   23               -   41.00000      -   938   72s
  1470   165 infeasible   26               -   41.00000      -   951   75s
  1739   202 infeasible   38               -   41.00000      -   889   81s
  1925   160 infeasible   38               -   41.00000      -   864   85s
  2515    73 infeasible   43               -   41.00000      -   846   91s
  2648    66   41.00000   20 1152          -   41.00000      -   835   95s
  2879    12 infeasible   22               -   41.00000      -   818  100s

Cutting planes:
  Lift-and-project: 1
  Flow cover: 34
  Zero half: 1104
  RLT: 313

Explored 2961 nodes (2426999 simplex iterations) in 101.27 seconds (102.71 work units)
Thread count was 64 (of 64 available processors)

Solution count 0
No other solutions better than -1e+100

Model is infeasible
Best objective -, best bound -, gap -
      159.44 - 	Solution num 0:
      159.50 - increase high_eq_constraint to 4

Set parameter Username
Academic license - for non-commercial use only - expires 2022-06-20
Set parameter Threads to value 64
Set parameter MIPFocus to value 3
      159.54 - there are 119 short nonlinear (11) polynomial
Set parameter TimeLimit to value 1800
Gurobi Optimizer version 9.5.0 build v9.5.0rc5 (linux64)
Thread count: 32 physical cores, 64 logical processors, using up to 64 threads
Optimize a model with 5287 rows, 2496 columns and 16563 nonzeros
Model fingerprint: 0xb93f5f69
Variable types: 0 continuous, 2496 integer (2496 binary)
Coefficient statistics:
  Matrix range     [1e+00, 1e+00]
  Objective range  [1e+00, 1e+00]
  Bounds range     [1e+00, 1e+00]
  RHS range        [4e+00, 2e+02]
Presolve removed 961 rows and 961 columns
Presolve time: 0.02s
Presolved: 4326 rows, 1535 columns, 14504 nonzeros
Variable types: 0 continuous, 1535 integer (1535 binary)
Root relaxation presolved: 4326 rows, 1535 columns, 14504 nonzeros


Root relaxation: objective 4.100000e+01, 2823 iterations, 0.39 seconds (0.41 work units)

    Nodes    |    Current Node    |     Objective Bounds      |     Work
 Expl Unexpl |  Obj  Depth IntInf | Incumbent    BestBd   Gap | It/Node Time

     0     0   41.00000    0  765          -   41.00000      -     -    1s
     0     0   41.00000    0  807          -   41.00000      -     -    4s
     0     0   41.00000    0  802          -   41.00000      -     -    4s
     0     0   41.00000    0  794          -   41.00000      -     -    8s
     0     0   41.00000    0  794          -   41.00000      -     -    9s
     0     2   41.00000    0  699          -   41.00000      -     -   14s
     1     4   41.00000    1  825          -   41.00000      -  7160   15s
    31    64   41.00000    5  927          -   41.00000      -   520   21s
    63   128   41.00000    6  963          -   41.00000      -   591   28s
    94   128   41.00000    6  949          -   41.00000      -   917   30s
   127   192   41.00000    7  836          -   41.00000      -   982   38s
   191   256   41.00000    8 1081          -   41.00000      -  1527   42s
   255   423   41.00000    9  801          -   41.00000      -  1264   45s
   732   800   41.00000   12  948          -   41.00000      -   923   51s
  1477  1019   41.00000   11  857          -   41.00000      -   682   64s
  2330  1231   41.00000   10  884          -   41.00000      -   605   86s
  3322  1382   41.00000    9  932          -   41.00000      -   574  115s
  4535  1587   41.00000   10  915          -   41.00000      -   563  156s
  5534  1838   41.00000   15  936          -   41.00000      -   636  177s
  7313  1999   41.00000   14 1106          -   41.00000      -   608  201s
  9410  2262   41.00000   18 1059          -   41.00000      -   589  240s
 11711  2414 infeasible   20               -   41.00000      -   578  293s
 14237  2551   41.00000   13 1115          -   41.00000      -   575  330s
 16948  2701   41.00000   25 1158          -   41.00000      -   575  382s
 19802  2873 infeasible   23               -   41.00000      -   574  440s
 23110  2926   41.00000   16 1139          -   41.00000      -   574  514s
 26581  3087   41.00000   21 1181          -   41.00000      -   576  556s
 30081  3088   41.00000   18  794          -   41.00000      -   581  561s
 30083  3089   41.00000   30  765          -   41.00000      -   581  565s
 30084  3090   41.00000   23  779          -   41.00000      -   581  570s
 30086  3091   41.00000   16  750          -   41.00000      -   581  581s
 30087  3092   41.00000   11  731          -   41.00000      -   581  588s
 30088  3093   41.00000   14  696          -   41.00000      -   580  593s
 30089  3093   41.00000   23  696          -   41.00000      -   580  597s
 30090  3094   41.00000   19  696          -   41.00000      -   580  600s
 30091  3098   41.00000   14  663          -   41.00000      -   1.3  613s
 30093  3101   41.00000   15  667          -   41.00000      -   1.4  623s
 30097  3108   41.00000   16  830          -   41.00000      -   1.4  642s
 30105  3121   41.00000   17  770          -   41.00000      -   1.7  656s
 30121  3148   41.00000   18  982          -   41.00000      -   3.1  664s
 30153  3201   41.00000   19  841          -   41.00000      -   3.8  671s
 30217  3244   41.00000   20  897          -   41.00000      -   7.2  676s
 30281  3282   41.00000   21  819          -   41.00000      -   8.2  682s
 30345  3491   41.00000   22  955          -   41.00000      -  15.5  700s
 30668  3524   41.00000   22  815          -   41.00000      -  20.2  762s
 31093  3593   41.00000   25 1137          -   41.00000      -  34.1  792s
 32345  3328   41.00000   27 1078          -   41.00000      -  57.2  847s
 33516  3175   41.00000   37 1201          -   41.00000      -  78.0  900s
 34847  2928   41.00000   34 1102          -   41.00000      -  97.8  937s
 36452  2514   41.00000   38 1083          -   41.00000      -   120 1023s
 38137  2184   41.00000   38 1140          -   41.00000      -   143 1076s
 40116  1894 infeasible   39               -   41.00000      -   166 1114s
 42260  2011   41.00000   38 1142          -   41.00000      -   190 1189s
 42961  1998 infeasible   39               -   41.00000      -   197 1285s
 45608  2207 infeasible   33               -   41.00000      -   224 1332s
 48685  2234 infeasible   47               -   41.00000      -   248 1360s
 51718  1984 infeasible   44               -   41.00000      -   271 1411s
 54566  2001   41.00000   38 1181          -   41.00000      -   293 1471s
 57563  2153 infeasible   45               -   41.00000      -   312 1569s
 60935  2237 infeasible   45               -   41.00000      -   327 1623s
 64681  2266 infeasible   30               -   41.00000      -   345 1703s
 68028  2241 infeasible   56               -   41.00000      -   361 1800s

Cutting planes:
  Lift-and-project: 6
  MIR: 4
  Flow cover: 360
  Zero half: 1130
  RLT: 413

Explored 71521 nodes (44407106 simplex iterations) in 1800.18 seconds (1424.53 work units)
Thread count was 64 (of 64 available processors)

Solution count 0

Time limit reached
Best objective -, best bound 4.100000000000e+01, gap -
     1959.93 - best linearization 40


